
  22   10
  10   10   10   10   10   10   10   10   10   10

   0   0   0   0   0   0   0   0   0   0   0   3 2 4 5 
   9  10  10  10  10  10  10  10  10  10  10   1 3 
   6  10  10  10  10  10  10  10  10  10  10   3 9 8 6 
   5  10  10  10  10  10  10  10  10  10  10   3 9 8 6 
   1  10  10  10  10  10  10  10  10  10  10   5 13 11 9 8 7 
   8  10  10  10  10  10  10  10  10  10  10   3 13 11 7 
   4  10  10  10  10  10  10  10  10  10  10   2 12 10 
   9  10  10  10  10  10  10  10  10  10  10   2 19 15 
   4  10  10  10  10  10  10  10  10  10  10   1 10 
   1  10  10  10  10  10  10  10  10  10  10   2 19 16 
   3  10  10  10  10  10  10  10  10  10  10   2 19 16 
   7  10  10  10  10  10  10  10  10  10  10   1 14 
   3  10  10  10  10  10  10  10  10  10  10   1 14 
   4  10  10  10  10  10  10  10  10  10  10   1 16 
   8  10  10  10  10  10  10  10  10  10  10   1 16 
   7  10  10  10  10  10  10  10  10  10  10   1 17 
   3  10  10  10  10  10  10  10  10  10  10   2 20 18 
   4  10  10  10  10  10  10  10  10  10  10   1 21 
   4  10  10  10  10  10  10  10  10  10  10   1 20 
   9  10  10  10  10  10  10  10  10  10  10   1 22
   6  10  10  10  10  10  10  10  10  10  10   1 22
   0   0   0   0   0   0   0   0   0   0   0   0 
